(set-logic QF_FPABV)
(declare-fun b68 () (_ FP 11 53))
(declare-fun b58 () (_ FP 11 53))
(declare-fun b54 () (_ FP 11 53))
(declare-fun b71 () (_ FP 11 53))
(declare-fun b61 () (_ FP 11 53))
(declare-fun b28 () (_ FP 11 53))
(declare-fun b20 () (_ FP 11 53))
(declare-fun b51 () (_ FP 11 53))
(declare-fun b24 () (_ FP 11 53))
(declare-fun b14 () (_ FP 11 53))
(declare-fun b32 () (_ FP 11 53))
(declare-fun b16 () (_ FP 11 53))
(declare-fun b13 () (_ FP 11 53))
(define-fun .3 () RoundingMode roundNearestTiesToEven)
(define-fun .9 () (_ FP 11 53) b13)
(define-fun .10 () (_ FP 11 53) b28)
(define-fun .11 () (_ FP 11 53) (+ .3 .9 .10))
(define-fun .12 () (_ FP 11 53) b24)
(define-fun .13 () Bool (< .12 .11))
(define-fun .14 () Bool (not .13))
(define-fun .15 () (_ FP 11 53) b61)
(define-fun .16 () Bool (<= .15 .9))
(define-fun .17 () (_ FP 11 53) b58)
(define-fun .18 () Bool (<= .9 .17))
(define-fun .19 () Bool (and .16 .18))
(define-fun .20 () (_ FP 11 53) b54)
(define-fun .21 () (_ FP 11 53) b14)
(define-fun .22 () Bool (<= .20 .21))
(define-fun .23 () Bool (and .19 .22))
(define-fun .24 () (_ FP 11 53) b51)
(define-fun .25 () Bool (<= .21 .24))
(define-fun .26 () Bool (and .23 .25))
(define-fun .27 () (_ FP 11 53) b16)
(define-fun .28 () Bool (<= .15 .27))
(define-fun .29 () Bool (and .26 .28))
(define-fun .30 () Bool (<= .27 .17))
(define-fun .31 () Bool (and .29 .30))
(define-fun .32 () (_ FP 11 53) b71)
(define-fun .33 () (_ FP 11 53) b32)
(define-fun .34 () Bool (<= .32 .33))
(define-fun .35 () Bool (and .31 .34))
(define-fun .36 () (_ FP 11 53) b68)
(define-fun .37 () Bool (<= .33 .36))
(define-fun .38 () Bool (and .35 .37))
(define-fun .39 () (_ FP 11 53) (+ .3 .21 .27))
(define-fun .40 () (_ FP 11 53) (+ .3 .9 .21))
(define-fun .41 () (_ FP 11 53) (* .3 .39 .40))
(define-fun .42 () (_ FP 11 53) b20)
(define-fun .43 () Bool (< .42 .41))
(define-fun .44 () Bool (not .43))
(define-fun .45 () Bool (and .38 .44))
(define-fun .46 () Bool (<= .9 .12))
(define-fun .47 () Bool (and .45 .46))
(define-fun .48 () (_ FP 11 53) (+ .3 .9 .33))
(define-fun .49 () Bool (< .12 .48))
(define-fun .50 () Bool (and .47 .49))
(define-fun .51 () Bool (and .14 .50))
(assert .51)
(check-sat)
